TYPE : Vertex Cover
DIMENSION: 20
EDGE_DATA_SECTION:
0 1
0 12
1 8
1 13
2 13
3 4
3 13
3 16
4 5
4 10
4 14
4 17
4 18
5 7
5 12
5 13
5 14
5 19
6 10
6 17
7 8
7 10
7 13
7 14
8 11
8 15
8 17
8 19
9 10
9 12
9 19
10 11
10 16
10 17
10 19
11 14
11 15
11 17
12 15
12 16
14 15
14 16
14 19
16 18
17 18
-1
VERTEX_DEGREE:
2.0 3.0 1.0 3.0 6.0 6.0 2.0 5.0 6.0 3.0 8.0 5.0 5.0 5.0 7.0 4.0 5.0 6.0 3.0 5.0
VERTEX_COVER:
0 4 5 8 9 10 13 14 15 16 17
EOF
